asp/input/in_40_20_7_4.lp
#const n = 40.
#const k = 20.
#const h = 7.
tile(1,17,14).
tile(2,3,16).
tile(3,11,8).
tile(4,17,2).
tile(5,19,7).
tile(6,16,7).
tile(7,17,3).
tile(8,18,7).
tile(9,19,12).
tile(10,14,20).
tile(11,3,1).
tile(12,14,18).
tile(13,7,1).
tile(14,2,5).
tile(15,3,15).
tile(16,14,19).
tile(17,14,20).
tile(18,15,17).
tile(19,5,5).
tile(20,8,1).
tile(21,5,16).
tile(22,14,6).
tile(23,18,12).
tile(24,3,11).
tile(25,11,7).
tile(26,14,3).
tile(27,3,13).
tile(28,6,15).
tile(29,2,16).
tile(30,7,4).
tile(31,6,20).
tile(32,12,3).
tile(33,19,11).
tile(34,17,4).
tile(35,5,19).
tile(36,4,12).
tile(37,5,4).
tile(38,9,7).
tile(39,8,13).
tile(40,1,8).
