minizinc/input/in_40_20_7_4.dzn
n = 40;
k = 20;
h = 7;
tiles = array2d(1..n, 1..2,
[ 17,14
, 3,16
, 11,8
, 17,2
, 19,7
, 16,7
, 17,3
, 18,7
, 19,12
, 14,20
, 3,1
, 14,18
, 7,1
, 2,5
, 3,15
, 14,19
, 14,20
, 15,17
, 5,5
, 8,1
, 5,16
, 14,6
, 18,12
, 3,11
, 11,7
, 14,3
, 3,13
, 6,15
, 2,16
, 7,4
, 6,20
, 12,3
, 19,11
, 17,4
, 5,19
, 4,12
, 5,4
, 9,7
, 8,13
, 1,8
]);